c description: Tseitin formula on Random 4-regular graph of 80 vertices, with odd charge
c generator: CNFgen (0.9.2)
c copyright: (C) 2012-2022 Massimo Lauria <massimo.lauria@uniroma1.it>
c url: https://massimolauria.net/cnfgen
c command line: cnfgen tseitin 80 4
c
p cnf 160 640
1 2 3 4 0
1 2 -3 -4 0
1 -2 3 -4 0
1 -2 -3 4 0
-1 2 3 -4 0
-1 2 -3 4 0
-1 -2 3 4 0
-1 -2 -3 -4 0
5 6 7 8 0
5 6 -7 -8 0
5 -6 7 -8 0
5 -6 -7 8 0
-5 6 7 -8 0
-5 6 -7 8 0
-5 -6 7 8 0
-5 -6 -7 -8 0
9 10 11 12 0
9 10 -11 -12 0
9 -10 11 -12 0
9 -10 -11 12 0
-9 10 11 -12 0
-9 10 -11 12 0
-9 -10 11 12 0
-9 -10 -11 -12 0
1 13 14 -15 0
1 13 -14 15 0
1 -13 14 15 0
1 -13 -14 -15 0
-1 13 14 15 0
-1 13 -14 -15 0
-1 -13 14 -15 0
-1 -13 -14 15 0
2 16 17 18 0
2 16 -17 -18 0
2 -16 17 -18 0
2 -16 -17 18 0
-2 16 17 -18 0
-2 16 -17 18 0
-2 -16 17 18 0
-2 -16 -17 -18 0
5 19 20 -21 0
5 19 -20 21 0
5 -19 20 21 0
5 -19 -20 -21 0
-5 19 20 21 0
-5 19 -20 -21 0
-5 -19 20 -21 0
-5 -19 -20 21 0
22 23 24 25 0
22 23 -24 -25 0
22 -23 24 -25 0
22 -23 -24 25 0
-22 23 24 -25 0
-22 23 -24 25 0
-22 -23 24 25 0
-22 -23 -24 -25 0
26 27 28 29 0
26 27 -28 -29 0
26 -27 28 -29 0
26 -27 -28 29 0
-26 27 28 -29 0
-26 27 -28 29 0
-26 -27 28 29 0
-26 -27 -28 -29 0
30 31 32 -33 0
30 31 -32 33 0
30 -31 32 33 0
30 -31 -32 -33 0
-30 31 32 33 0
-30 31 -32 -33 0
-30 -31 32 -33 0
-30 -31 -32 33 0
9 34 35 36 0
9 34 -35 -36 0
9 -34 35 -36 0
9 -34 -35 36 0
-9 34 35 -36 0
-9 34 -35 36 0
-9 -34 35 36 0
-9 -34 -35 -36 0
37 38 39 -40 0
37 38 -39 40 0
37 -38 39 40 0
37 -38 -39 -40 0
-37 38 39 40 0
-37 38 -39 -40 0
-37 -38 39 -40 0
-37 -38 -39 40 0
41 42 43 -44 0
41 42 -43 44 0
41 -42 43 44 0
41 -42 -43 -44 0
-41 42 43 44 0
-41 42 -43 -44 0
-41 -42 43 -44 0
-41 -42 -43 44 0
41 45 46 47 0
41 45 -46 -47 0
41 -45 46 -47 0
41 -45 -46 47 0
-41 45 46 -47 0
-41 45 -46 47 0
-41 -45 46 47 0
-41 -45 -46 -47 0
48 49 50 -51 0
48 49 -50 51 0
48 -49 50 51 0
48 -49 -50 -51 0
-48 49 50 51 0
-48 49 -50 -51 0
-48 -49 50 -51 0
-48 -49 -50 51 0
52 53 54 -55 0
52 53 -54 55 0
52 -53 54 55 0
52 -53 -54 -55 0
-52 53 54 55 0
-52 53 -54 -55 0
-52 -53 54 -55 0
-52 -53 -54 55 0
13 56 57 58 0
13 56 -57 -58 0
13 -56 57 -58 0
13 -56 -57 58 0
-13 56 57 -58 0
-13 56 -57 58 0
-13 -56 57 58 0
-13 -56 -57 -58 0
26 48 59 -60 0
26 48 -59 60 0
26 -48 59 60 0
26 -48 -59 -60 0
-26 48 59 60 0
-26 48 -59 -60 0
-26 -48 59 -60 0
-26 -48 -59 60 0
61 62 63 64 0
61 62 -63 -64 0
61 -62 63 -64 0
61 -62 -63 64 0
-61 62 63 -64 0
-61 62 -63 64 0
-61 -62 63 64 0
-61 -62 -63 -64 0
65 66 67 68 0
65 66 -67 -68 0
65 -66 67 -68 0
65 -66 -67 68 0
-65 66 67 -68 0
-65 66 -67 68 0
-65 -66 67 68 0
-65 -66 -67 -68 0
34 69 70 71 0
34 69 -70 -71 0
34 -69 70 -71 0
34 -69 -70 71 0
-34 69 70 -71 0
-34 69 -70 71 0
-34 -69 70 71 0
-34 -69 -70 -71 0
72 73 74 -75 0
72 73 -74 75 0
72 -73 74 75 0
72 -73 -74 -75 0
-72 73 74 75 0
-72 73 -74 -75 0
-72 -73 74 -75 0
-72 -73 -74 75 0
6 76 77 -78 0
6 76 -77 78 0
6 -76 77 78 0
6 -76 -77 -78 0
-6 76 77 78 0
-6 76 -77 -78 0
-6 -76 77 -78 0
-6 -76 -77 78 0
19 22 61 -79 0
19 22 -61 79 0
19 -22 61 79 0
19 -22 -61 -79 0
-19 22 61 79 0
-19 22 -61 -79 0
-19 -22 61 -79 0
-19 -22 -61 79 0
59 80 81 82 0
59 80 -81 -82 0
59 -80 81 -82 0
59 -80 -81 82 0
-59 80 81 -82 0
-59 80 -81 82 0
-59 -80 81 82 0
-59 -80 -81 -82 0
62 83 84 85 0
62 83 -84 -85 0
62 -83 84 -85 0
62 -83 -84 85 0
-62 83 84 -85 0
-62 83 -84 85 0
-62 -83 84 85 0
-62 -83 -84 -85 0
23 86 87 88 0
23 86 -87 -88 0
23 -86 87 -88 0
23 -86 -87 88 0
-23 86 87 -88 0
-23 86 -87 88 0
-23 -86 87 88 0
-23 -86 -87 -88 0
72 86 89 -90 0
72 86 -89 90 0
72 -86 89 90 0
72 -86 -89 -90 0
-72 86 89 90 0
-72 86 -89 -90 0
-72 -86 89 -90 0
-72 -86 -89 90 0
7 69 91 92 0
7 69 -91 -92 0
7 -69 91 -92 0
7 -69 -91 92 0
-7 69 91 -92 0
-7 69 -91 92 0
-7 -69 91 92 0
-7 -69 -91 -92 0
20 24 91 -93 0
20 24 -91 93 0
20 -24 91 93 0
20 -24 -91 -93 0
-20 24 91 93 0
-20 24 -91 -93 0
-20 -24 91 -93 0
-20 -24 -91 93 0
14 37 94 -95 0
14 37 -94 95 0
14 -37 94 95 0
14 -37 -94 -95 0
-14 37 94 95 0
-14 37 -94 -95 0
-14 -37 94 -95 0
-14 -37 -94 95 0
27 96 97 98 0
27 96 -97 -98 0
27 -96 97 -98 0
27 -96 -97 98 0
-27 96 97 -98 0
-27 96 -97 98 0
-27 -96 97 98 0
-27 -96 -97 -98 0
83 99 100 -101 0
83 99 -100 101 0
83 -99 100 101 0
83 -99 -100 -101 0
-83 99 100 101 0
-83 99 -100 -101 0
-83 -99 100 -101 0
-83 -99 -100 101 0
45 70 102 -103 0
45 70 -102 103 0
45 -70 102 103 0
45 -70 -102 -103 0
-45 70 102 103 0
-45 70 -102 -103 0
-45 -70 102 -103 0
-45 -70 -102 103 0
63 89 96 104 0
63 89 -96 -104 0
63 -89 96 -104 0
63 -89 -96 104 0
-63 89 96 -104 0
-63 89 -96 104 0
-63 -89 96 104 0
-63 -89 -96 -104 0
49 84 105 -106 0
49 84 -105 106 0
49 -84 105 106 0
49 -84 -105 -106 0
-49 84 105 106 0
-49 84 -105 -106 0
-49 -84 105 -106 0
-49 -84 -105 106 0
38 107 108 -109 0
38 107 -108 109 0
38 -107 108 109 0
38 -107 -108 -109 0
-38 107 108 109 0
-38 107 -108 -109 0
-38 -107 108 -109 0
-38 -107 -108 109 0
10 35 87 -110 0
10 35 -87 110 0
10 -35 87 110 0
10 -35 -87 -110 0
-10 35 87 110 0
-10 35 -87 -110 0
-10 -35 87 -110 0
-10 -35 -87 110 0
76 85 111 -112 0
76 85 -111 112 0
76 -85 111 112 0
76 -85 -111 -112 0
-76 85 111 112 0
-76 85 -111 -112 0
-76 -85 111 -112 0
-76 -85 -111 112 0
11 107 113 114 0
11 107 -113 -114 0
11 -107 113 -114 0
11 -107 -113 114 0
-11 107 113 -114 0
-11 107 -113 114 0
-11 -107 113 114 0
-11 -107 -113 -114 0
104 115 116 -117 0
104 115 -116 117 0
104 -115 116 117 0
104 -115 -116 -117 0
-104 115 116 117 0
-104 115 -116 -117 0
-104 -115 116 -117 0
-104 -115 -116 117 0
25 46 65 -118 0
25 46 -65 118 0
25 -46 65 118 0
25 -46 -65 -118 0
-25 46 65 118 0
-25 46 -65 -118 0
-25 -46 65 -118 0
-25 -46 -65 118 0
16 56 115 -119 0
16 56 -115 119 0
16 -56 115 119 0
16 -56 -115 -119 0
-16 56 115 119 0
-16 56 -115 -119 0
-16 -56 115 -119 0
-16 -56 -115 119 0
52 90 120 121 0
52 90 -120 -121 0
52 -90 120 -121 0
52 -90 -120 121 0
-52 90 120 -121 0
-52 90 -120 121 0
-52 -90 120 121 0
-52 -90 -120 -121 0
122 123 124 125 0
122 123 -124 -125 0
122 -123 124 -125 0
122 -123 -124 125 0
-122 123 124 -125 0
-122 123 -124 125 0
-122 -123 124 125 0
-122 -123 -124 -125 0
8 93 122 126 0
8 93 -122 -126 0
8 -93 122 -126 0
8 -93 -122 126 0
-8 93 122 -126 0
-8 93 -122 126 0
-8 -93 122 126 0
-8 -93 -122 -126 0
50 80 123 -127 0
50 80 -123 127 0
50 -80 123 127 0
50 -80 -123 -127 0
-50 80 123 127 0
-50 80 -123 -127 0
-50 -80 123 -127 0
-50 -80 -123 127 0
99 108 128 -129 0
99 108 -128 129 0
99 -108 128 129 0
99 -108 -128 -129 0
-99 108 128 129 0
-99 108 -128 -129 0
-99 -108 128 -129 0
-99 -108 -128 129 0
105 120 130 131 0
105 120 -130 -131 0
105 -120 130 -131 0
105 -120 -130 131 0
-105 120 130 -131 0
-105 120 -130 131 0
-105 -120 130 131 0
-105 -120 -130 -131 0
17 51 66 132 0
17 51 -66 -132 0
17 -51 66 -132 0
17 -51 -66 132 0
-17 51 66 -132 0
-17 51 -66 132 0
-17 -51 66 132 0
-17 -51 -66 -132 0
42 67 119 -133 0
42 67 -119 133 0
42 -67 119 133 0
42 -67 -119 -133 0
-42 67 119 133 0
-42 67 -119 -133 0
-42 -67 119 -133 0
-42 -67 -119 133 0
102 134 135 136 0
102 134 -135 -136 0
102 -134 135 -136 0
102 -134 -135 136 0
-102 134 135 -136 0
-102 134 -135 136 0
-102 -134 135 136 0
-102 -134 -135 -136 0
73 79 137 138 0
73 79 -137 -138 0
73 -79 137 -138 0
73 -79 -137 138 0
-73 79 137 -138 0
-73 79 -137 138 0
-73 -79 137 138 0
-73 -79 -137 -138 0
15 81 139 -140 0
15 81 -139 140 0
15 -81 139 140 0
15 -81 -139 -140 0
-15 81 139 140 0
-15 81 -139 -140 0
-15 -81 139 -140 0
-15 -81 -139 140 0
53 116 141 -142 0
53 116 -141 142 0
53 -116 141 142 0
53 -116 -141 -142 0
-53 116 141 142 0
-53 116 -141 -142 0
-53 -116 141 -142 0
-53 -116 -141 142 0
57 111 139 -143 0
57 111 -139 143 0
57 -111 139 143 0
57 -111 -139 -143 0
-57 111 139 143 0
-57 111 -139 -143 0
-57 -111 139 -143 0
-57 -111 -139 143 0
21 113 144 145 0
21 113 -144 -145 0
21 -113 144 -145 0
21 -113 -144 145 0
-21 113 144 -145 0
-21 113 -144 145 0
-21 -113 144 145 0
-21 -113 -144 -145 0
103 146 147 -148 0
103 146 -147 148 0
103 -146 147 148 0
103 -146 -147 -148 0
-103 146 147 148 0
-103 146 -147 -148 0
-103 -146 147 -148 0
-103 -146 -147 148 0
30 39 92 140 0
30 39 -92 -140 0
30 -39 92 -140 0
30 -39 -92 140 0
-30 39 92 -140 0
-30 39 -92 140 0
-30 -39 92 140 0
-30 -39 -92 -140 0
54 58 74 149 0
54 58 -74 -149 0
54 -58 74 -149 0
54 -58 -74 149 0
-54 58 74 -149 0
-54 58 -74 149 0
-54 -58 74 149 0
-54 -58 -74 -149 0
97 114 150 -151 0
97 114 -150 151 0
97 -114 150 151 0
97 -114 -150 -151 0
-97 114 150 151 0
-97 114 -150 -151 0
-97 -114 150 -151 0
-97 -114 -150 151 0
77 112 149 150 0
77 112 -149 -150 0
77 -112 149 -150 0
77 -112 -149 150 0
-77 112 149 -150 0
-77 112 -149 150 0
-77 -112 149 150 0
-77 -112 -149 -150 0
100 126 141 -152 0
100 126 -141 152 0
100 -126 141 152 0
100 -126 -141 -152 0
-100 126 141 152 0
-100 126 -141 -152 0
-100 -126 141 -152 0
-100 -126 -141 152 0
36 94 153 154 0
36 94 -153 -154 0
36 -94 153 -154 0
36 -94 -153 154 0
-36 94 153 -154 0
-36 94 -153 154 0
-36 -94 153 154 0
-36 -94 -153 -154 0
3 31 75 106 0
3 31 -75 -106 0
3 -31 75 -106 0
3 -31 -75 106 0
-3 31 75 -106 0
-3 31 -75 106 0
-3 -31 75 106 0
-3 -31 -75 -106 0
82 110 118 -128 0
82 110 -118 128 0
82 -110 118 128 0
82 -110 -118 -128 0
-82 110 118 128 0
-82 110 -118 -128 0
-82 -110 118 -128 0
-82 -110 -118 128 0
64 98 155 156 0
64 98 -155 -156 0
64 -98 155 -156 0
64 -98 -155 156 0
-64 98 155 -156 0
-64 98 -155 156 0
-64 -98 155 156 0
-64 -98 -155 -156 0
68 130 144 157 0
68 130 -144 -157 0
68 -130 144 -157 0
68 -130 -144 157 0
-68 130 144 -157 0
-68 130 -144 157 0
-68 -130 144 157 0
-68 -130 -144 -157 0
28 40 43 101 0
28 40 -43 -101 0
28 -40 43 -101 0
28 -40 -43 101 0
-28 40 43 -101 0
-28 40 -43 101 0
-28 -40 43 101 0
-28 -40 -43 -101 0
18 71 95 158 0
18 71 -95 -158 0
18 -71 95 -158 0
18 -71 -95 158 0
-18 71 95 -158 0
-18 71 -95 158 0
-18 -71 95 158 0
-18 -71 -95 -158 0
4 124 134 146 0
4 124 -134 -146 0
4 -124 134 -146 0
4 -124 -134 146 0
-4 124 134 -146 0
-4 124 -134 146 0
-4 -124 134 146 0
-4 -124 -134 -146 0
55 133 142 151 0
55 133 -142 -151 0
55 -133 142 -151 0
55 -133 -142 151 0
-55 133 142 -151 0
-55 133 -142 151 0
-55 -133 142 151 0
-55 -133 -142 -151 0
145 155 158 -159 0
145 155 -158 159 0
145 -155 158 159 0
145 -155 -158 -159 0
-145 155 158 159 0
-145 155 -158 -159 0
-145 -155 158 -159 0
-145 -155 -158 159 0
47 88 147 -160 0
47 88 -147 160 0
47 -88 147 160 0
47 -88 -147 -160 0
-47 88 147 160 0
-47 88 -147 -160 0
-47 -88 147 -160 0
-47 -88 -147 160 0
117 137 156 -157 0
117 137 -156 157 0
117 -137 156 157 0
117 -137 -156 -157 0
-117 137 156 157 0
-117 137 -156 -157 0
-117 -137 156 -157 0
-117 -137 -156 157 0
127 148 153 159 0
127 148 -153 -159 0
127 -148 153 -159 0
127 -148 -153 159 0
-127 148 153 -159 0
-127 148 -153 159 0
-127 -148 153 159 0
-127 -148 -153 -159 0
32 78 135 152 0
32 78 -135 -152 0
32 -78 135 -152 0
32 -78 -135 152 0
-32 78 135 -152 0
-32 78 -135 152 0
-32 -78 135 152 0
-32 -78 -135 -152 0
29 121 131 -154 0
29 121 -131 154 0
29 -121 131 154 0
29 -121 -131 -154 0
-29 121 131 154 0
-29 121 -131 -154 0
-29 -121 131 -154 0
-29 -121 -131 154 0
12 33 129 143 0
12 33 -129 -143 0
12 -33 129 -143 0
12 -33 -129 143 0
-12 33 129 -143 0
-12 33 -129 143 0
-12 -33 129 143 0
-12 -33 -129 -143 0
44 125 136 138 0
44 125 -136 -138 0
44 -125 136 -138 0
44 -125 -136 138 0
-44 125 136 -138 0
-44 125 -136 138 0
-44 -125 136 138 0
-44 -125 -136 -138 0
60 109 132 160 0
60 109 -132 -160 0
60 -109 132 -160 0
60 -109 -132 160 0
-60 109 132 -160 0
-60 109 -132 160 0
-60 -109 132 160 0
-60 -109 -132 -160 0
